f8_l-d_kp_23_10000
n 23
c 10000
z 9767
time
1, 981, 983, 0
2, 980, 982, 0
3, 979, 981, 0
4, 978, 980, 0
5, 977, 979, 0
6, 976, 978, 0
7, 487, 488, 0
8, 974, 976, 0
9, 970, 972, 0
10, 485, 486, 0
11, 485, 486, 0
12, 970, 972, 0
13, 970, 972, 0
14, 484, 485, 0
15, 484, 485, 0
16, 976, 969, 0
17, 974, 966, 0
18, 482, 483, 0
19, 962, 964, 0
20, 961, 963, 0
21, 959, 961, 0
22, 958, 958, 0
23, 857, 959, 0
---------------
